certificates/rado_a15_c217_N63.drat
14 -60 11 0
-14 -62 -63 0
-62 -63 0
d -14 -62 -63 0
-63 0
11 0
18 8 0
-18 -60 0
d -18 -7 -60 0
-60 0
14 0
-7 0
-21 0
-4 0
-18 0
15 0
0
